   38

C       2.345425   20.725069    7.516752
C       1.134184   20.024609    7.516751
C       1.107271   18.609729    7.516744
C       2.352192   17.891395    7.516732
C       3.593475   18.615730    7.516727
C       3.560011   20.030355    7.516738
C       2.356072   16.442783    7.516724
C       3.599432   15.727076    7.516707
C       4.854681   16.444505    7.516702
C       4.860547   17.877018    7.516711
C       1.116745   15.720337    7.516725
C       1.120539   14.287779    7.516713
C       2.363865   13.571879    7.516702
C       3.603163   14.294683    7.516697
C       2.367591   12.123027    7.516693
C       3.612476   11.405036    7.516685
C       4.875349   12.151220    7.516678
C       4.861981   13.583510    7.516683
C       1.126790   11.397890    7.516694
C       1.161304    9.983108    7.516685
C       2.375950    9.288469    7.516683
C       3.586384    9.990297    7.516681
C       6.108386   14.295745    7.516682
C       6.104445   15.738634    7.516692
C       6.096971   18.546529    7.516710
C       7.350437   16.451178    7.516698
C       7.336881   17.883609    7.516708
C       6.115430   11.488595    7.516666
C       7.352252   12.157108    7.516665
C       7.358296   13.589591    7.516674
H       2.342946   21.828313    7.516762
H       0.197701   20.603917    7.516751
H       4.494275   20.612994    7.516730
H       0.227748    9.399551    7.516675
H       2.380102    8.184781    7.516680
H       4.523443    9.412597    7.516675
H       6.094552   19.644354    7.516715
H       6.117866   10.390806    7.516663
